c DIMACS Generated directly from Feature Model with Cross-Tree Constraints
p cnf 65 217
1 0
-2 1 0
-1 2 0
-3 2 0
-4 2 0
-5 2 0
-6 2 0
-7 1 0
-1 7 0
-8 7 0
-9 7 0
-10 7 0
-11 1 0
-12 11 0
-13 11 0
-14 1 0
-1 14 0
-15 14 0
-16 14 0
-17 14 0
-18 14 0
-19 14 0
-20 14 0
-21 1 0
-1 21 0
-22 21 0
-23 21 0
-24 21 0
-25 21 0
-26 21 0
-27 21 0
-28 1 0
-1 28 0
-29 28 0
-30 28 0
-31 28 0
-32 28 0
-33 28 0
-34 28 0
-35 28 0
-36 28 0
-37 28 0
-38 28 0
-39 1 0
-1 39 0
-40 39 0
-41 39 0
-42 39 0
-43 1 0
-1 43 0
-44 43 0
-45 43 0
-46 43 0
-47 1 0
-1 47 0
-48 47 0
-49 47 0
-50 1 0
-51 1 0
-52 51 0
-53 51 0
-54 1 0
-55 54 0
-56 54 0
-57 54 0
-58 54 0
-59 54 0
-60 54 0
-61 1 0
-62 1 0
-63 1 0
-1 63 0
-64 1 0
-1 64 0
-65 1 0
-1 65 0
-51 52 53 0
-54 55 56 57 58 59 60 0
-2 3 4 5 6 0
-3 -4 0
-3 -5 0
-3 -6 0
-4 -5 0
-4 -6 0
-5 -6 0
-7 8 9 10 0
-8 -9 0
-8 -10 0
-9 -10 0
-11 12 13 0
-12 -13 0
-14 15 16 17 18 19 20 0
-15 -16 0
-15 -17 0
-15 -18 0
-15 -19 0
-15 -20 0
-16 -17 0
-16 -18 0
-16 -19 0
-16 -20 0
-17 -18 0
-17 -19 0
-17 -20 0
-18 -19 0
-18 -20 0
-19 -20 0
-21 22 23 24 25 26 27 0
-22 -23 0
-22 -24 0
-22 -25 0
-22 -26 0
-22 -27 0
-23 -24 0
-23 -25 0
-23 -26 0
-23 -27 0
-24 -25 0
-24 -26 0
-24 -27 0
-25 -26 0
-25 -27 0
-26 -27 0
-28 29 30 31 32 33 34 35 36 37 38 0
-29 -30 0
-29 -31 0
-29 -32 0
-29 -33 0
-29 -34 0
-29 -35 0
-29 -36 0
-29 -37 0
-29 -38 0
-30 -31 0
-30 -32 0
-30 -33 0
-30 -34 0
-30 -35 0
-30 -36 0
-30 -37 0
-30 -38 0
-31 -32 0
-31 -33 0
-31 -34 0
-31 -35 0
-31 -36 0
-31 -37 0
-31 -38 0
-32 -33 0
-32 -34 0
-32 -35 0
-32 -36 0
-32 -37 0
-32 -38 0
-33 -34 0
-33 -35 0
-33 -36 0
-33 -37 0
-33 -38 0
-34 -35 0
-34 -36 0
-34 -37 0
-34 -38 0
-35 -36 0
-35 -37 0
-35 -38 0
-36 -37 0
-36 -38 0
-37 -38 0
-39 40 41 42 0
-40 -41 0
-40 -42 0
-41 -42 0
-43 44 45 46 0
-44 -45 0
-44 -46 0
-45 -46 0
-47 48 49 0
-48 -49 0
-15 3 0
-16 3 4 0
-17 3 4 0
-18 3 4 0
-19 5 6 0
-20 5 6 0
-29 3 0
-30 3 0
-32 4 0
-33 4 0
-35 5 0
-36 5 0
-37 6 0
-38 6 0
-42 5 6 0
-49 5 6 0
-55 3 4 0
-57 3 6 0
-58 4 6 0
-59 5 0
-60 5 0
-61 4 5 0
-5 61 0
-62 5 6 0
-3 44 0
-6 44 0
-4 -17 44 46 0
-4 -16 44 0
-4 -18 44 0
-5 -20 45 0
-12 8 0
-13 10 9 0
-31 3 0
-31 18 0
-3 -18 31 0
-34 4 0
-34 18 0
-4 -18 34 0
